% Data file generated from TestInstance.txt DIMACS file
vertices = 11;

adjacency = [|false,true,false,true,false,false,true,false,true,false,false|
              true,false,true,false,false,true,false,true,false,false,false|
              false,true,false,false,true,false,true,false,false,true,false|
              true,false,false,false,true,true,false,false,false,true,false|
              false,false,true,true,false,false,false,true,true,false,false|
              false,true,false,true,false,false,false,false,false,false,true|
              true,false,true,false,false,false,false,false,false,false,true|
              false,true,false,false,true,false,false,false,false,false,true|
              true,false,false,false,true,false,false,false,false,false,true|
              false,false,true,true,false,false,false,false,false,false,true|
              false,false,false,false,false,true,true,true,true,true,false|];